solution status: optimal solution found
objective value:                      163519.87242497
d11(0,0)                                            1 	(obj:0)
d11(2,3)                                            1 	(obj:0)
d11(2,4)                                            1 	(obj:0)
d11(2,5)                                            1 	(obj:0)
d11(2,6)                                            1 	(obj:0)
d11(3,7)                            0.999999999999999 	(obj:0)
d11(3,9)                            0.999999999999995 	(obj:0)
d11(3,10)                                           1 	(obj:0)
d11(3,11)                                           1 	(obj:0)
d11(3,13)                                           1 	(obj:0)
d11(4,15)                                           1 	(obj:0)
d11(4,17)                                           1 	(obj:0)
d11(4,19)                                           1 	(obj:0)
d11(4,21)                                           1 	(obj:0)
d11(4,23)                                           1 	(obj:0)
d11(4,25)                                           1 	(obj:0)
d11(4,27)                                           1 	(obj:0)
d11(4,29)                                           1 	(obj:0)
d12(1,2)                                            1 	(obj:0)
d12(4,16)                                           1 	(obj:0)
d12(4,18)                                           1 	(obj:0)
d12(4,20)                                           1 	(obj:0)
d12(4,22)                                           1 	(obj:0)
d12(4,24)                                           1 	(obj:0)
d12(4,26)                                           1 	(obj:0)
d12(4,28)                                           1 	(obj:0)
d12(4,30)                                           1 	(obj:0)
d21(3,7)                                            1 	(obj:0)
d21(4,15)                                           1 	(obj:0)
d21(4,16)                                           1 	(obj:0)
d21(4,17)                                           1 	(obj:0)
d21(4,19)                                           1 	(obj:0)
d21(4,23)                                           1 	(obj:0)
d21(4,24)                                           1 	(obj:0)
d21(4,25)                                           1 	(obj:0)
d21(4,27)                                           1 	(obj:0)
STE(1,1)                                         5796 	(obj:0)
STE(0,0)                                         6300 	(obj:0)
STE(1,2)                             7112.21408587651 	(obj:0)
STE(2,3)                                         2268 	(obj:0)
STE(2,4)                             3926.24989888882 	(obj:0)
STE(2,5)                             3584.21408587651 	(obj:0)
STE(2,6)                             5242.46398476532 	(obj:0)
STE(3,7)                             105.750101111153 	(obj:0)
STE(3,8)                                         1764 	(obj:0)
STE(3,9)                                         1764 	(obj:0)
STE(3,10)                            3422.24989888879 	(obj:0)
STE(3,11)                            1421.96418698766 	(obj:0)
STE(3,12)                            3080.21408587651 	(obj:0)
STE(3,13)                            3080.21408587648 	(obj:0)
STE(3,14)                            4738.46398476532 	(obj:0)
STE(4,15)                           -1877.31170849662 	(obj:0)
STE(4,16)                           -398.249898888847 	(obj:0)
STE(4,17)                           -219.061809607773 	(obj:0)
STE(4,18)                                        1260 	(obj:0)
STE(4,19)                           -219.061809607773 	(obj:0)
STE(4,20)                                        1260 	(obj:0)
STE(4,21)                            1439.18808928102 	(obj:0)
STE(4,22)                            2918.24989888879 	(obj:0)
STE(4,23)                           -561.097622620113 	(obj:0)
STE(4,24)                             917.96418698766 	(obj:0)
STE(4,25)                            1097.15227626873 	(obj:0)
STE(4,26)                            2576.21408587651 	(obj:0)
STE(4,27)                             1097.1522762687 	(obj:0)
STE(4,28)                            2576.21408587648 	(obj:0)
STE(4,29)                            2755.40217515755 	(obj:0)
STE(4,30)                            4234.46398476532 	(obj:0)
y1(3,11)                             1492.42490899996 	(obj:0)
y1(3,13)                             1492.42490899996 	(obj:0)
y1(4,15)                               1331.155628647 	(obj:0)
y1(4,17)                               1331.155628647 	(obj:0)
y1(4,19)                               1331.155628647 	(obj:0)
y1(4,21)                               1331.155628647 	(obj:0)
y1(4,23)                               1331.155628647 	(obj:0)
y1(4,25)                               1331.155628647 	(obj:0)
y1(4,27)                               1331.155628647 	(obj:0)
y1(4,29)                               1331.155628647 	(obj:0)
WB(1)                                3265.91696791192 	(obj:0)
AVE(1)                               3265.91696791192 	(obj:0)
AVE(2)                               3332.74178563731 	(obj:0)
AVE(3)                               3444.11697932125 	(obj:0)
AVE(4)                               3399.56511093778 	(obj:0)
WG(2)                                3332.74178563731 	(obj:10)
WG(3)                                3444.11697932125 	(obj:10)
WG(4)                                3399.56511093778 	(obj:10)
BG(1)                                2673.40993877552 	(obj:10)
BG(2)                                 2117.8110102811 	(obj:10)
BG(3)                                752.175519658342 	(obj:10)
BG(4)                                632.166897885724 	(obj:10)
y1(2,3)                                        2721.6 	(obj:0)
y1(2,4)                              1229.17509100007 	(obj:0)
y1(2,5)                                        2721.6 	(obj:0)
y1(2,6)                              1229.17509100007 	(obj:0)
y1(3,7)                              1492.42490899996 	(obj:0)
y1(3,9)                              1492.42490899994 	(obj:0)
y2(1,2)                              1385.48851144895 	(obj:0)
